units                 si
dimension             3
atom_style		        charge
variable	       debye equal 100e-6
lattice 	       fcc 53e-6

boundary	      pp pp pp

region		      mybox block 0 10e-3 0 3e-3 0 3e-3 units box
region                fillbox block 7e-3 9e-3 0e-3 0.5e-3 0e-3 0.9e-3 units box
region                simbox union 2 mybox fillbox
create_box	      2 simbox

create_atoms 	      1 region fillbox
group dust type 1
set 		      type 1 charge -5.57e-16  # -3481e
mass                  1 3.053e-14 # kg

create_atoms	       2 single 4e-3 1.5e-3 2e-3 units box 
set 		       type 2 charge -5e-13 #roughly 1e6 times dust charge
mass 		       2 1 #15 orders of magnitude higher than dust mass, basically infinite
group		       obstacle type 2



#read_restart Rfiles/test_10s.restart


variable 	      kappa equal 1/v_debye
variable 	      cutoff equal 10*v_debye
neigh_modify          delay 0 every 1 check yes page 5000000 one 500000
pair_style 	      coul/debye ${kappa} ${cutoff}
pair_coeff 	      * * ${cutoff}

variable              dust_radius equal 1.69e-6
variable 	      pressure equal 150
variable	      coeff equal 6.0899e-6 #4.329e-6 neon, 6.0899e-6 argon: Tn 300K, rho 1510kg/m3
variable              gammaEp equal (v_coeff*v_pressure)/(v_dust_radius)
variable              gamma equal 1.0/v_gammaEp
print "Gamma before = ${gamma}, ${gammaEp}, ${coeff}, ${pressure}, ${dust_radius}"
fix                   damping dust langevin 5000 5000 ${gamma} 38533 tally yes
fix_modify            damping energy yes  # adds to potential energy

fix                   melting dust temp/berendsen 5000 10000 1e-2

#dump                                      visuals obstacle image 100 im.*.png type type adiam 5e-4 zoom 1.6

#run 0

fix 		      moveatoms dust nve

thermo_style	      custom step temp pe ke epair etotal
thermo 		      100

#dump				          visuals all image 100 im.*.png type type adiam 5e-5 zoom 1.6
timestep              1e-5

#dump_modify visuals adiam 1 1e-5

run 5000
#run 0

#write_restart test_file.restart
timestep 1e-4
run                   3000

#write_restart test_20s.restart

#dump eql all custom 1 eql.csv id x y z vx vy vz

#run 0


unfix                 melting
fix                   equil dust temp/csld 3000 3000 1e-3 123321

timestep 1e-3
unfix                 damping

variable              pressure equal 30

##print "Gamma now = ${gamma}"
fix                   damping_2 dust langevin 3000 3000 ${gamma} 298 tally yes
fix_modify damping_2 energy yes

##timestep 1e-3
run 2000

#write_restart test2.restart

unfix equil
unfix damping_2
variable pressure equal 15
fix damping_3 dust langevin 1000 1000 ${gamma} 298 tally yes
fix_modify        damping_3 energy yes

##thermo_style	        custom step temp pe ke epair etotal
##thermo 				        10

run 20000

write_restart         3d_obstacle.restart
